NAME : X_30_seed_123_id_10
TYPE : CVRP
DIMENSION : 237
EDGE_WEIGHT_TYPE : EUC_2D
CAPACITY : 18
NODE_COORD_SECTION
1	0	0
2	488	645
3	885	88
4	86	98
5	824	861
6	851	169
7	562	200
8	466	574
9	912	140
10	153	570
11	818	930
12	58	895
13	852	584
14	502	510
15	994	318
16	875	930
17	19	262
18	174	67
19	168	818
20	982	969
21	424	372
22	291	191
23	586	59
24	799	799
25	863	497
26	228	98
27	114	185
28	822	203
29	517	335
30	18	488
31	38	295
32	803	648
33	551	278
34	804	813
35	366	919
36	284	183
37	851	811
38	712	80
39	504	445
40	624	733
41	468	773
42	905	140
43	762	652
44	956	36
45	716	371
46	500	458
47	523	310
48	123	683
49	378	635
50	972	209
51	826	582
52	524	120
53	870	867
54	519	957
55	137	519
56	376	805
57	816	520
58	216	672
59	952	446
60	176	779
61	913	341
62	950	742
63	815	485
64	711	375
65	896	840
66	899	403
67	894	507
68	1000	638
69	239	73
70	75	497
71	795	218
72	469	545
73	232	475
74	42	907
75	318	204
76	381	735
77	861	157
78	746	277
79	354	548
80	802	766
81	171	487
82	509	563
83	700	978
84	332	759
85	80	66
86	498	275
87	960	749
88	473	538
89	890	168
90	449	214
91	81	62
92	359	274
93	917	956
94	503	238
95	452	918
96	683	734
97	974	923
98	664	221
99	431	708
100	523	106
101	238	537
102	566	39
103	874	409
104	483	765
105	199	87
106	784	758
107	629	184
108	809	423
109	355	945
110	546	278
111	664	779
112	66	678
113	9	736
114	29	795
115	610	17
116	757	776
117	524	274
118	589	796
119	479	247
120	302	856
121	855	616
122	872	994
123	88	939
124	336	963
125	572	331
126	937	480
127	723	895
128	377	95
129	327	345
130	510	21
131	874	675
132	691	85
133	448	916
134	435	809
135	494	571
136	792	633
137	705	417
138	827	103
139	997	667
140	983	46
141	224	66
142	349	518
143	255	998
144	820	888
145	748	257
146	816	482
147	351	278
148	727	727
149	107	273
150	261	356
151	161	361
152	752	675
153	885	776
154	859	840
155	75	690
156	251	840
157	107	677
158	250	60
159	887	23
160	623	610
161	146	414
162	424	786
163	3	46
164	182	456
165	571	850
166	608	209
167	793	573
168	499	422
169	928	589
170	179	510
171	289	918
172	159	966
173	422	459
174	69	132
175	130	135
176	294	897
177	612	209
178	818	646
179	29	617
180	607	705
181	512	910
182	213	308
183	870	691
184	303	161
185	858	246
186	241	754
187	532	979
188	441	315
189	195	826
190	977	376
191	289	200
192	296	356
193	383	999
194	36	936
195	741	631
196	585	806
197	820	366
198	588	36
199	838	965
200	914	366
201	536	585
202	469	636
203	447	870
204	830	474
205	86	785
206	177	301
207	65	799
208	841	25
209	886	564
210	383	634
211	479	350
212	969	753
213	608	675
214	497	10
215	864	505
216	603	255
217	269	659
218	423	139
219	32	774
220	597	719
221	784	734
222	829	834
223	440	854
224	66	443
225	228	187
226	8	942
227	729	472
228	402	932
229	997	560
230	518	911
231	239	824
232	885	69
233	167	657
234	123	282
235	410	970
236	875	16
237	639	516
DEMAND_SECTION
1	0
2	1
3	1
4	1
5	1
6	1
7	1
8	1
9	1
10	1
11	1
12	1
13	1
14	1
15	1
16	1
17	1
18	1
19	1
20	1
21	1
22	1
23	1
24	1
25	1
26	1
27	1
28	1
29	1
30	1
31	1
32	1
33	1
34	1
35	1
36	1
37	1
38	1
39	1
40	1
41	1
42	1
43	1
44	1
45	1
46	1
47	1
48	1
49	1
50	1
51	1
52	1
53	1
54	1
55	1
56	1
57	1
58	1
59	1
60	1
61	1
62	1
63	1
64	1
65	1
66	1
67	1
68	1
69	1
70	1
71	1
72	1
73	1
74	1
75	1
76	1
77	1
78	1
79	1
80	1
81	1
82	1
83	1
84	1
85	1
86	1
87	1
88	1
89	1
90	1
91	1
92	1
93	1
94	1
95	1
96	1
97	1
98	1
99	1
100	1
101	1
102	1
103	1
104	1
105	1
106	1
107	1
108	1
109	1
110	1
111	1
112	1
113	1
114	1
115	1
116	1
117	1
118	1
119	1
120	1
121	1
122	1
123	1
124	1
125	1
126	1
127	1
128	1
129	1
130	1
131	1
132	1
133	1
134	1
135	1
136	1
137	1
138	1
139	1
140	1
141	1
142	1
143	1
144	1
145	1
146	1
147	1
148	1
149	1
150	1
151	1
152	1
153	1
154	1
155	1
156	1
157	1
158	1
159	1
160	1
161	1
162	1
163	1
164	1
165	1
166	1
167	1
168	1
169	1
170	1
171	1
172	1
173	1
174	1
175	1
176	1
177	1
178	1
179	1
180	1
181	1
182	1
183	1
184	1
185	1
186	1
187	1
188	1
189	1
190	1
191	1
192	1
193	1
194	1
195	1
196	1
197	1
198	1
199	1
200	1
201	1
202	1
203	1
204	1
205	1
206	1
207	1
208	1
209	1
210	1
211	1
212	1
213	1
214	1
215	1
216	1
217	1
218	1
219	1
220	1
221	1
222	1
223	1
224	1
225	1
226	1
227	1
228	1
229	1
230	1
231	1
232	1
233	1
234	1
235	1
236	1
237	1
DEPOT_SECTION
1
-1
EOF
